s=3;
puzzle=[|
    4, _, 8, _, _, _, _, _, _|
    _, _, _, 1, 7, _, _, _, _|
    _, _, _, _, 8, _, _, 3, 2|
    _, _, 6, _, _, 8, 2, 5, _|
    _, 9, _, _, _, _, _, 8, _|
    _, 3, 7, 6, _, _, 9, _, _|
    2, 7, _, _, 5, _, _, _, _|
    _, _, _, _, 1, 4, _, _, _|
    _, _, _, _, _, _, 6, _, 4|
|];
